
Gurobi 7.0.2 (linux64, Python) logging started Tue Mar  7 13:52:17 2017


Gurobi 7.0.2 (linux64, Python) logging started Tue Mar  7 13:52:26 2017


Gurobi 7.0.2 (linux64, Python) logging started Wed Mar  8 16:46:56 2017


Gurobi 7.0.2 (linux64, Python) logging started Wed Mar  8 18:40:32 2017


Gurobi 7.0.2 (linux64, Python) logging started Wed Mar  8 18:41:08 2017


Gurobi 7.0.2 (linux64, Python) logging started Wed Mar  8 18:41:19 2017


Gurobi 7.0.2 (linux64, Python) logging started Wed Mar  8 18:48:31 2017

